NAME 
ROWS
 N  OBJ
 L  R0      
 E  R1      
 E  R2      
 E  R3      
 E  R4      
 E  R5      
 E  R6      
 E  R7      
 E  R8      
 E  R9      
 E  R10     
 E  R11     
 E  R12     
 E  R13     
 E  R14     
 E  R15     
 E  R16     
 E  R17     
 E  R18     
 E  R19     
 E  R20     
 E  R21     
 E  R22     
 E  R23     
 E  R24     
 E  R25     
COLUMNS
    MARKER    'MARKER'                 'INTORG'
    I0(13)    OBJ       -108
    I0(13)    R0        -137
    I0(13)    R1        13
    I0(13)    R2        9
    I0(13)    R4        10
    I0(13)    R5        19
    I0(13)    R6        9
    I0(13)    R7        15
    I0(13)    R8        2
    I0(13)    R10       4
    I0(13)    R11       16
    I0(13)    R12       8
    I0(13)    R13       12
    I0(13)    R25       1
    I1(13)    OBJ       190
    I1(13)    R0        161
    I1(13)    R1        17
    I1(13)    R2        1
    I1(13)    R3        -1
    I1(13)    R4        8
    I1(13)    R6        9
    I1(13)    R7        15
    I1(13)    R10       17
    I1(13)    R12       16
    I1(13)    R13       15
    I1(13)    R14       12
    I1(13)    R15       7
    I1(13)    R25       1
    I2(14)    OBJ       111
    I2(14)    R0        169
    I2(14)    R1        12
    I2(14)    R2        19
    I2(14)    R3        14
    I2(14)    R4        3
    I2(14)    R5        13
    I2(14)    R6        9
    I2(14)    R7        11
    I2(14)    R8        14
    I2(14)    R9        16
    I2(14)    R10       17
    I2(14)    R11       12
    I2(14)    R14       16
    I2(14)    R25       1
    I3(15)    OBJ       131
    I3(15)    R0        -14
    I3(15)    R1        5
    I3(15)    R2        13
    I3(15)    R3        -1
    I3(15)    R4        15
    I3(15)    R5        17
    I3(15)    R6        10
    I3(15)    R7        12
    I3(15)    R9        16
    I3(15)    R10       15
    I3(15)    R11       -1
    I3(15)    R12       13
    I3(15)    R13       15
    I3(15)    R14       16
    I3(15)    R25       1
    I4(15)    OBJ       9
    I4(15)    R0        45
    I4(15)    R2        6
    I4(15)    R3        11
    I4(15)    R4        7
    I4(15)    R5        16
    I4(15)    R6        14
    I4(15)    R7        9
    I4(15)    R8        9
    I4(15)    R10       19
    I4(15)    R11       7
    I4(15)    R12       15
    I4(15)    R13       3
    I4(15)    R14       14
    I4(15)    R15       5
    I4(15)    R25       1
    I5(15)    OBJ       -17
    I5(15)    R0        17
    I5(15)    R1        15
    I5(15)    R2        11
    I5(15)    R4        15
    I5(15)    R5        9
    I5(15)    R6        17
    I5(15)    R8        17
    I5(15)    R9        5
    I5(15)    R10       18
    I5(15)    R11       19
    I5(15)    R12       10
    I5(15)    R13       4
    I5(15)    R14       6
    I5(15)    R15       13
    I5(15)    R25       1
    I6(12)    OBJ       6
    I6(12)    R0        36
    I6(12)    R1        13
    I6(12)    R2        6
    I6(12)    R3        5
    I6(12)    R4        3
    I6(12)    R5        13
    I6(12)    R6        9
    I6(12)    R8        7
    I6(12)    R12       3
    I6(12)    R13       6
    I6(12)    R14       3
    I6(12)    R25       1
    I7(13)    OBJ       18
    I7(13)    R0        -181
    I7(13)    R1        18
    I7(13)    R2        5
    I7(13)    R3        19
    I7(13)    R5        17
    I7(13)    R6        3
    I7(13)    R8        8
    I7(13)    R9        19
    I7(13)    R12       4
    I7(13)    R13       8
    I7(13)    R14       6
    I7(13)    R15       8
    I7(13)    R25       1
    I8(15)    OBJ       171
    I8(15)    R0        104
    I8(15)    R1        13
    I8(15)    R2        7
    I8(15)    R3        18
    I8(15)    R4        14
    I8(15)    R5        18
    I8(15)    R6        2
    I8(15)    R8        8
    I8(15)    R10       11
    I8(15)    R11       11
    I8(15)    R12       19
    I8(15)    R13       7
    I8(15)    R14       7
    I8(15)    R15       10
    I8(15)    R25       1
    I9(14)    OBJ       119
    I9(14)    R0        -58
    I9(14)    R1        2
    I9(14)    R2        1
    I9(14)    R6        16
    I9(14)    R7        11
    I9(14)    R8        9
    I9(14)    R9        15
    I9(14)    R10       13
    I9(14)    R11       14
    I9(14)    R12       2
    I9(14)    R13       12
    I9(14)    R14       11
    I9(14)    R15       6
    I9(14)    R25       1
    I10(14)   OBJ       140
    I10(14)   R0        -17
    I10(14)   R1        9
    I10(14)   R2        16
    I10(14)   R3        10
    I10(14)   R4        2
    I10(14)   R6        14
    I10(14)   R7        10
    I10(14)   R8        7
    I10(14)   R9        18
    I10(14)   R10       3
    I10(14)   R12       5
    I10(14)   R14       -1
    I10(14)   R15       19
    I10(14)   R25       1
    I11(10)   OBJ       192
    I11(10)   R0        -38
    I11(10)   R3        8
    I11(10)   R4        18
    I11(10)   R5        15
    I11(10)   R7        5
    I11(10)   R8        3
    I11(10)   R12       2
    I11(10)   R13       4
    I11(10)   R15       4
    I11(10)   R25       1
    I12(12)   OBJ       -160
    I12(12)   R0        -88
    I12(12)   R1        7
    I12(12)   R2        7
    I12(12)   R4        7
    I12(12)   R6        6
    I12(12)   R8        12
    I12(12)   R9        10
    I12(12)   R11       7
    I12(12)   R12       17
    I12(12)   R13       8
    I12(12)   R14       5
    I12(12)   R25       1
    I13(17)   OBJ       37
    I13(17)   R0        85
    I13(17)   R1        13
    I13(17)   R2        11
    I13(17)   R3        14
    I13(17)   R4        14
    I13(17)   R5        12
    I13(17)   R6        11
    I13(17)   R7        5
    I13(17)   R8        2
    I13(17)   R9        9
    I13(17)   R10       11
    I13(17)   R11       4
    I13(17)   R12       5
    I13(17)   R13       10
    I13(17)   R14       8
    I13(17)   R15       6
    I13(17)   R25       1
    I14(12)   OBJ       -127
    I14(12)   R0        -54
    I14(12)   R2        3
    I14(12)   R3        5
    I14(12)   R4        6
    I14(12)   R5        5
    I14(12)   R6        13
    I14(12)   R7        18
    I14(12)   R8        18
    I14(12)   R9        -1
    I14(12)   R10       7
    I14(12)   R14       14
    I14(12)   R25       1
    MARKER    'MARKER'                 'INTEND'
    C15(20)   OBJ       -7
    C15(20)   R0        2
    C15(20)   R2        13
    C15(20)   R3        3
    C15(20)   R4        5
    C15(20)   R5        2
    C15(20)   R6        16
    C15(20)   R7        1
    C15(20)   R8        19
    C15(20)   R9        5
    C15(20)   R10       17
    C15(20)   R12       14
    C15(20)   R13       -1
    C15(20)   R14       15
    C15(20)   R15       9
    C15(20)   R16       11
    C15(20)   R17       8
    C15(20)   R18       13
    C15(20)   R20       18
    C15(20)   R22       2
    C15(20)   R24       12
    C16(18)   OBJ       4
    C16(18)   R0        1
    C16(18)   R1        7
    C16(18)   R4        6
    C16(18)   R6        17
    C16(18)   R7        -1
    C16(18)   R9        7
    C16(18)   R10       8
    C16(18)   R11       9
    C16(18)   R12       2
    C16(18)   R15       9
    C16(18)   R16       5
    C16(18)   R17       8
    C16(18)   R18       15
    C16(18)   R19       19
    C16(18)   R20       19
    C16(18)   R21       -1
    C16(18)   R23       1
    C16(18)   R24       10
    C17(19)   OBJ       -8
    C17(19)   R0        2
    C17(19)   R1        3
    C17(19)   R2        6
    C17(19)   R3        11
    C17(19)   R4        11
    C17(19)   R5        16
    C17(19)   R6        8
    C17(19)   R9        9
    C17(19)   R10       11
    C17(19)   R11       2
    C17(19)   R12       19
    C17(19)   R13       11
    C17(19)   R15       6
    C17(19)   R16       12
    C17(19)   R17       8
    C17(19)   R19       9
    C17(19)   R21       11
    C17(19)   R22       11
    C17(19)   R23       -1
    C18(20)   OBJ       -9
    C18(20)   R0        7
    C18(20)   R1        10
    C18(20)   R3        7
    C18(20)   R4        12
    C18(20)   R5        14
    C18(20)   R6        9
    C18(20)   R8        15
    C18(20)   R9        9
    C18(20)   R10       2
    C18(20)   R11       14
    C18(20)   R13       3
    C18(20)   R15       9
    C18(20)   R16       14
    C18(20)   R17       7
    C18(20)   R18       6
    C18(20)   R19       9
    C18(20)   R21       10
    C18(20)   R22       16
    C18(20)   R23       14
    C18(20)   R24       6
    C19(21)   R0        -5
    C19(21)   R3        15
    C19(21)   R4        4
    C19(21)   R5        1
    C19(21)   R6        5
    C19(21)   R8        19
    C19(21)   R9        11
    C19(21)   R11       17
    C19(21)   R12       9
    C19(21)   R13       9
    C19(21)   R14       17
    C19(21)   R15       18
    C19(21)   R16       11
    C19(21)   R17       11
    C19(21)   R18       11
    C19(21)   R19       16
    C19(21)   R20       9
    C19(21)   R21       16
    C19(21)   R22       17
    C19(21)   R23       15
    C19(21)   R24       11
    C20(18)   OBJ       -2
    C20(18)   R0        6
    C20(18)   R1        19
    C20(18)   R2        3
    C20(18)   R3        -1
    C20(18)   R7        18
    C20(18)   R8        2
    C20(18)   R9        4
    C20(18)   R10       3
    C20(18)   R11       1
    C20(18)   R12       6
    C20(18)   R13       15
    C20(18)   R14       3
    C20(18)   R15       11
    C20(18)   R16       8
    C20(18)   R19       -1
    C20(18)   R21       2
    C20(18)   R22       10
    C20(18)   R24       14
    C21(16)   OBJ       4
    C21(16)   R0        -2
    C21(16)   R2        18
    C21(16)   R3        16
    C21(16)   R4        5
    C21(16)   R5        19
    C21(16)   R6        14
    C21(16)   R7        12
    C21(16)   R10       19
    C21(16)   R11       1
    C21(16)   R12       1
    C21(16)   R14       5
    C21(16)   R17       3
    C21(16)   R19       18
    C21(16)   R20       1
    C21(16)   R21       6
    C21(16)   R22       14
    C22(19)   OBJ       7
    C22(19)   R0        6
    C22(19)   R1        11
    C22(19)   R2        19
    C22(19)   R3        19
    C22(19)   R4        19
    C22(19)   R5        1
    C22(19)   R6        2
    C22(19)   R7        11
    C22(19)   R8        16
    C22(19)   R9        5
    C22(19)   R10       8
    C22(19)   R12       2
    C22(19)   R14       12
    C22(19)   R15       -1
    C22(19)   R17       -1
    C22(19)   R18       8
    C22(19)   R19       13
    C22(19)   R20       10
    C22(19)   R21       12
    C23(23)   OBJ       -5
    C23(23)   R0        -6
    C23(23)   R1        9
    C23(23)   R2        -1
    C23(23)   R3        17
    C23(23)   R4        13
    C23(23)   R5        17
    C23(23)   R6        16
    C23(23)   R8        2
    C23(23)   R9        5
    C23(23)   R10       18
    C23(23)   R12       14
    C23(23)   R13       15
    C23(23)   R14       7
    C23(23)   R15       16
    C23(23)   R16       8
    C23(23)   R17       -1
    C23(23)   R18       6
    C23(23)   R19       6
    C23(23)   R20       5
    C23(23)   R21       10
    C23(23)   R22       7
    C23(23)   R23       18
    C23(23)   R24       2
    C24(22)   OBJ       -1
    C24(22)   R0        6
    C24(22)   R1        10
    C24(22)   R2        15
    C24(22)   R3        4
    C24(22)   R4        2
    C24(22)   R5        19
    C24(22)   R6        19
    C24(22)   R7        7
    C24(22)   R8        14
    C24(22)   R9        10
    C24(22)   R10       10
    C24(22)   R12       7
    C24(22)   R14       2
    C24(22)   R15       15
    C24(22)   R16       3
    C24(22)   R17       11
    C24(22)   R18       13
    C24(22)   R19       4
    C24(22)   R20       12
    C24(22)   R21       19
    C24(22)   R23       8
    C24(22)   R24       10
    C25(1)    R1        1
    C26(1)    R2        1
    C27(1)    R3        1
    C28(1)    R4        1
    C29(1)    R5        1
    C30(1)    R6        1
    C31(1)    R7        1
    C32(1)    R8        1
    C33(1)    R9        1
    C34(1)    R10       1
    C35(1)    R11       1
    C36(1)    R12       1
    C37(1)    R13       1
    C38(1)    R14       1
    C39(1)    R15       1
    C40(1)    R16       1
    C41(1)    R17       1
    C42(1)    R18       1
    C43(1)    R19       1
    C44(1)    R20       1
    C45(1)    R21       1
    C46(1)    R22       1
    C47(1)    R23       1
    C48(1)    R24       1
    C49(1)    R25       1
RHS
    RHS1      R0        -2.5160526315789468e+02
    RHS1      R1        65
    RHS1      R2        88
    RHS1      R3        50
    RHS1      R4        67
    RHS1      R5        98
    RHS1      R6        52
    RHS1      R7        79
    RHS1      R8        57
    RHS1      R9        73
    RHS1      R10       68
    RHS1      R11       75
    RHS1      R12       66
    RHS1      R13       64
    RHS1      R14       83
    RHS1      R15       52
    RHS1      R16       72
    RHS1      R17       66
    RHS1      R18       97
    RHS1      R19       60
    RHS1      R20       52
    RHS1      R21       96
    RHS1      R22       51
    RHS1      R23       57
    RHS1      R24       58
    RHS1      R25       5
BOUNDS
 UP BND1      I0(13)    1
 UP BND1      I1(13)    1
 UP BND1      I2(14)    1
 UP BND1      I3(15)    1
 UP BND1      I4(15)    1
 UP BND1      I5(15)    1
 UP BND1      I6(12)    1
 UP BND1      I7(13)    1
 UP BND1      I8(15)    1
 UP BND1      I9(14)    1
 UP BND1      I10(14)   1
 UP BND1      I11(10)   1
 UP BND1      I12(12)   1
 UP BND1      I13(17)   1
 UP BND1      I14(12)   1
ENDATA
